data/benchmarks/bayes/90-10-9-q.cnf
p cnf 460 405
c weights 0.456376 0.543624 1 1 1 1 1 1 1 1 1 1 1 1 1 1 1 1 1 1 1 1 1 1 1 1 1 1 1 1 1 1 1 1 1 1 1 1 1 1 1 1 1 1 1 1 1 1 1 1 1 1 1 1 1 1 1 1 1 1 1 1 1 1 1 1 1 1 1 1 1 1 1 1 1 1 1 1 1 1 1 1 1 1 1 1 1 1 1 1 1 1 1 1 1 1 1 1 1 1 1 1 1 1 1 1 1 1 1 1 1 1 1 1 1 1 1 1 1 1 1 1 1 1 1 1 1 1 1 1 1 1 1 1 1 1 1 1 1 1 1 1 1 1 1 1 1 1 1 1 1 1 1 1 1 1 1 1 1 1 1 1 1 1 1 1 1 1 1 1 1 1 1 1 1 1 1 1 1 1 1 1 1 1 1 1 1 1 1 1 1 1 1 1 1 1 1 1 1 1 0.490044 0.5099560000000001 0.370102 0.6298980000000001 0.5 0.5 0.5 0.5 0.5 0.5 0.5 0.5 0.5 0.5 0.5 0.5 0.5 0.5 0.5 0.5 0.5 0.5 0.5 0.5 0.5 0.5 0.5 0.5 0.5 0.5 0.5 0.5 0.5 0.5 0.5 0.5 0.5 0.5 0.5 0.5 0.595929 0.40407099999999996 0.673908 0.32609200000000005 0.864667 0.13533300000000004 0.769395 0.23060499999999995 0.5 0.5 0.5 0.5 0.5 0.5 0.5 0.5 0.5 0.5 0.5 0.5 0.5 0.5 0.5 0.5 0.5 0.5 0.5 0.5 0.5 0.5 0.5 0.5 0.5 0.5 0.5 0.5 0.5 0.5 0.5 0.5 0.5 0.5 0.5 0.5 0.5 0.5 0.5 0.5 0.644897 0.35510299999999995 0.398841 0.601159 0.655239 0.344761 0.509564 0.490436 0.5 0.5 0.5 0.5 0.5 0.5 0.5 0.5 0.5 0.5 0.5 0.5 0.5 0.5 0.5 0.5 0.5 0.5 0.5 0.5 0.5 0.5 0.5 0.5 0.5 0.5 0.5 0.5 0.5 0.5 0.5 0.5 0.5 0.5 0.5 0.5 0.5 0.5 0.5 0.5 0.5 0.5 0.5 0.5 0.0350419 0.9649581 0.982445 0.017554999999999987 0.501146 0.498854 0.203277 0.796723 0.5 0.5 0.5 0.5 0.5 0.5 0.5 0.5 0.587628 0.41237199999999996 0.369474 0.6305259999999999 0.141804 0.858196 0.036961 0.963039 0.785168 0.21483200000000002 0.94141 0.05859000000000003 0.122213 0.877787 0.966948 0.03305199999999997 0.5 0.5 0.5 0.5 0.5 0.5 0.5 0.5 0.5 0.5 0.5 0.5 0.5 0.5 0.5 0.5 0.5 0.5 0.5 0.5 0.0303293 0.9696707 0.610933 0.38906700000000005 0.19334 0.8066599999999999 0.456089 0.543911 0.5 0.5 0.5 0.5 0.5 0.5 0.5 0.5 0.5 0.5 0.5 0.5 0.5 0.5 0.5 0.5 0.486227 0.513773 0.79811 0.20189000000000001 0.94817 0.05183000000000004 0.220066 0.779934 0.5 0.5 0.5 0.5 0.5 0.5 0.5 0.5 0.5 0.5 0.5 0.5 0.5 0.5 0.5 0.5 0.5 0.5 0.5 0.5 0.5 0.5 0.5 0.5 0.5 0.5 0.5 0.5 0.5 0.5 0.5 0.5 0.5 0.5 0.5 0.5 0.5 0.5 0.5 0.5 0.5 0.5 0.5 0.5 0.5 0.5 0.5 0.5 0.5 0.5 0.5 0.5 0.5 0.5 0.5 0.5 0.5 0.5 0.5 0.5 0.5 0.5 0.5 0.5 0.5 0.5 0.5 0.5 0.5 0.5 0.5 0.5 0.5 0.5 0.5 0.5 0.5 0.5 0.5 0.5 0.5 0.5 0.5 0.5 0.5 0.5 0.5 0.5 0.5 0.5 0.5 0.5 0.5 0.5 0.5 0.5 0.5 0.5 0.5 0.5 0.5 0.5 0.5 0.5 0.5 0.5 0.5 0.5 0.5 0.5 0.5 0.5 0.5 0.5 0.5 0.5 0.5 0.5 0.5 0.5 0.5 0.5 0.5 0.5 0.5 0.5 0.5 0.5 0.5 0.5 0.5 0.5 0.5 0.5 0.5 0.5 0.5 0.5 0.5 0.5 0.5 0.5 0.5 0.5 0.5 0.5 0.5 0.5 0.5 0.5 0.5 0.5 0.5 0.5 0.5 0.5 0.5 0.5 0.5 0.5 0.5 0.5 0.5 0.5 0.5 0.5 0.5 0.5 0.5 0.5 0.5 0.5 0.5 0.5 0.5 0.5 0.431688 0.5683119999999999 0.926771 0.07322899999999999 0.949781 0.050219000000000014 0.911292 0.08870800000000001 0.5 0.5 0.5 0.5 0.5 0.5 0.5 0.5 0.5 0.5 0.5 0.5 0.5 0.5 0.5 0.5 0.5 0.5 0.5 0.5 0.5 0.5 0.5 0.5 0.5 0.5 0.5 0.5 0.5 0.5 0.5 0.5 0.5 0.5 0.5 0.5 0.5 0.5 0.5 0.5 0.5 0.5 0.5 0.5 0.5 0.5 0.5 0.5 0.5 0.5 0.5 0.5 0.5 0.5 0.5 0.5 0.5 0.5 0.5 0.5 0.5 0.5 0.5 0.5 0.5 0.5 0.5 0.5 0.5 0.5 0.5 0.5 0.5 0.5 0.5 0.5 0.5 0.5 0.5 0.5 0.5 0.5 0.5 0.5 0.5 0.5 0.5 0.5 0.5 0.5 0.5 0.5 0.5 0.5 0.5 0.5 0.5 0.5 0.5 0.5 0.5 0.5 0.5 0.5 0.5 0.5 0.5 0.5 0.5 0.5 0.5 0.5 0.718169 0.28183100000000005 0.681428 0.31857199999999997 0.626871 0.37312900000000004 0.931023 0.06897699999999996 0.5 0.5 0.5 0.5 0.5 0.5 0.5 0.5 0.5 0.5 0.5 0.5 0.5 0.5 0.5 0.5 0.5 0.5 0.5 0.5 0.5 0.5 0.5 0.5 0.5 0.5 0.5 0.5 0.5 0.5 0.5 0.5 0.5 0.5 0.5 0.5 0.5 0.5 0.5 0.5 0.00197523 0.99802477 0.480627 0.519373 0.5 0.5 0.5 0.5 0.5 0.5 0.5 0.5 0.5 0.5 0.5 0.5 0.5 0.5 0.5 0.5 0.5 0.5 0.5 0.5 0.5 0.5 0.5 0.5 0.5 0.5 0.5 0.5 0.5 0.5 0.5 0.5 0.5 0.5 0.5 0.5 0.5 0.5 0.5 0.5 0.5 0.5 0.5 0.5 0.5 0.5 0.5 0.5 0.5 0.5 0.5 0.5 0.5 0.5 0.5 0.5 0.5 0.5 0.5 0.5 0.5 0.5 0.5 0.5 0.510377 0.48962300000000003 0.854695 0.14530500000000002 0.00917741 0.99082259 0.0537579 0.9462421 0.5 0.5 0.5 0.5 0.5 0.5 0.5 0.5 0.5 0.5 0.5 0.5 0.5 0.5 0.5 0.5 0.5 0.5 0.5 0.5 0.5 0.5 0.5 0.5 0.5 0.5 0.5 0.5 0.5 0.5 0.5 0.5 0.5 0.5 0.5 0.5 0.5 0.5 0.5 0.5 0.5 0.5 0.5 0.5 0.5 0.5 0.5 0.5 0.5 0.5 0.5 0.5 0.5 0.5 0.5 0.5 0.5 0.5 0.5 0.5 0.5 0.5 0.5 0.5 0.5 0.5 0.5 0.5 0.5 0.5 0.5 0.5 0.5 0.5 0.5 0.5
-1 -101 2 0
-1 101 -2 0
1 -102 2 0
1 102 -2 0
-2 3 0
2 -3 0
-3 -4 0
3 4 0
-4 -5 0
4 5 0
-5 -6 0
5 6 0
-6 7 0
6 -7 0
-7 8 0
7 -8 0
-8 9 0
8 -9 0
-9 -10 0
9 10 0
-1 -11 0
1 11 0
-11 -2 -121 12 0
-11 -2 121 -12 0
-11 2 -122 12 0
-11 2 122 -12 0
11 -2 -123 12 0
11 -2 123 -12 0
11 2 -124 12 0
11 2 124 -12 0
-12 -3 -13 0
-12 3 -13 0
12 -3 13 0
12 3 13 0
-13 -4 14 0
-13 4 14 0
13 -4 -14 0
13 4 -14 0
-14 -5 -15 0
-14 5 -15 0
14 -5 -15 0
14 5 15 0
-15 -6 16 0
-15 6 -16 0
15 -6 -16 0
15 6 -16 0
-16 -7 17 0
-16 7 -17 0
16 -7 17 0
16 7 -17 0
-17 -8 -145 18 0
-17 -8 145 -18 0
-17 8 -146 18 0
-17 8 146 -18 0
17 -8 -147 18 0
17 -8 147 -18 0
17 8 -148 18 0
17 8 148 -18 0
-18 -9 19 0
-18 9 -19 0
18 -9 19 0
18 9 -19 0
-19 -10 20 0
-19 10 -20 0
19 -10 20 0
19 10 20 0
-11 21 0
11 -21 0
-21 -12 22 0
-21 12 22 0
21 -12 -22 0
21 12 22 0
-22 -13 23 0
-22 13 23 0
22 -13 -23 0
22 13 23 0
-23 -14 -24 0
-23 14 -24 0
23 -14 24 0
23 14 24 0
-24 -15 -171 25 0
-24 -15 171 -25 0
-24 15 -172 25 0
-24 15 172 -25 0
24 -15 -173 25 0
24 -15 173 -25 0
24 15 -174 25 0
24 15 174 -25 0
-25 -16 26 0
-25 16 26 0
25 -16 -26 0
25 16 -26 0
-26 -17 -179 27 0
-26 -17 179 -27 0
-26 17 -180 27 0
-26 17 180 -27 0
26 -17 -181 27 0
26 -17 181 -27 0
26 17 -182 27 0
26 17 182 -27 0
-27 -18 -183 28 0
-27 -18 183 -28 0
-27 18 -184 28 0
-27 18 184 -28 0
27 -18 -185 28 0
27 -18 185 -28 0
27 18 -186 28 0
27 18 186 -28 0
-28 -19 29 0
-28 19 29 0
28 -19 -29 0
28 19 -29 0
-29 -20 30 0
-29 20 -30 0
29 -20 30 0
29 20 30 0
-21 31 0
21 -31 0
-31 -22 -197 32 0
-31 -22 197 -32 0
-31 22 -198 32 0
-31 22 198 -32 0
31 -22 -199 32 0
31 -22 199 -32 0
31 22 -200 32 0
31 22 200 -32 0
-32 -23 33 0
-32 23 33 0
32 -23 33 0
32 23 -33 0
-33 -24 34 0
-33 24 -34 0
33 -24 34 0
33 24 34 0
-34 -25 -209 35 0
-34 -25 209 -35 0
-34 25 -210 35 0
-34 25 210 -35 0
34 -25 -211 35 0
34 -25 211 -35 0
34 25 -212 35 0
34 25 212 -35 0
-35 -26 -36 0
-35 26 -36 0
35 -26 -36 0
35 26 36 0
-36 -27 37 0
-36 27 -37 0
36 -27 37 0
36 27 -37 0
-37 -28 -38 0
-37 28 -38 0
37 -28 38 0
37 28 -38 0
-38 -29 -39 0
-38 29 -39 0
38 -29 39 0
38 29 -39 0
-39 -30 40 0
-39 30 -40 0
39 -30 -40 0
39 30 -40 0
-31 41 0
31 -41 0
-41 -32 42 0
-41 32 42 0
41 -32 -42 0
41 32 42 0
-42 -33 -43 0
-42 33 -43 0
42 -33 -43 0
42 33 43 0
-43 -34 44 0
-43 34 -44 0
43 -34 -44 0
43 34 44 0
-44 -35 45 0
-44 35 45 0
44 -35 45 0
44 35 -45 0
-45 -36 46 0
-45 36 -46 0
45 -36 46 0
45 36 -46 0
-46 -37 47 0
-46 37 -47 0
46 -37 47 0
46 37 47 0
-47 -38 48 0
-47 38 -48 0
47 -38 48 0
47 38 48 0
-48 -39 49 0
-48 39 49 0
48 -39 -49 0
48 39 49 0
-49 -40 -50 0
-49 40 -50 0
49 -40 50 0
49 40 -50 0
-41 51 0
41 -51 0
-51 -42 52 0
-51 42 -52 0
51 -42 -52 0
51 42 -52 0
-52 -43 -53 0
-52 43 -53 0
52 -43 53 0
52 43 53 0
-53 -44 54 0
-53 44 -54 0
53 -44 -54 0
53 44 54 0
-54 -45 -55 0
-54 45 55 0
54 -45 -55 0
54 45 -55 0
-55 -46 -56 0
-55 46 -56 0
55 -46 -56 0
55 46 56 0
-56 -47 -57 0
-56 47 -57 0
56 -47 57 0
56 47 -57 0
-57 -48 58 0
-57 48 -58 0
57 -48 58 0
57 48 58 0
-58 -49 -301 59 0
-58 -49 301 -59 0
-58 49 -302 59 0
-58 49 302 -59 0
58 -49 -303 59 0
58 -49 303 -59 0
58 49 -304 59 0
58 49 304 -59 0
-59 -50 -60 0
-59 50 -60 0
59 -50 60 0
59 50 -60 0
-51 -61 0
51 61 0
-61 -52 -62 0
-61 52 -62 0
61 -52 62 0
61 52 -62 0
-62 -53 63 0
-62 53 63 0
62 -53 -63 0
62 53 -63 0
-63 -54 64 0
-63 54 -64 0
63 -54 -64 0
63 54 -64 0
-64 -55 65 0
-64 55 65 0
64 -55 -65 0
64 55 65 0
-65 -56 -66 0
-65 56 -66 0
65 -56 -66 0
65 56 66 0
-66 -57 67 0
-66 57 -67 0
66 -57 67 0
66 57 67 0
-67 -58 -68 0
-67 58 68 0
67 -58 -68 0
67 58 68 0
-68 -59 -69 0
-68 59 69 0
68 -59 69 0
68 59 69 0
-69 -60 70 0
-69 60 -70 0
69 -60 70 0
69 60 70 0
-61 -71 0
61 71 0
-71 -62 -72 0
-71 62 -72 0
71 -62 -72 0
71 62 72 0
-72 -63 73 0
-72 63 73 0
72 -63 73 0
72 63 -73 0
-73 -64 -74 0
-73 64 74 0
73 -64 74 0
73 64 -74 0
-74 -65 -361 75 0
-74 -65 361 -75 0
-74 65 -362 75 0
-74 65 362 -75 0
74 -65 -363 75 0
74 -65 363 -75 0
74 65 -364 75 0
74 65 364 -75 0
-75 -66 76 0
-75 66 -76 0
75 -66 -76 0
75 66 -76 0
-76 -67 77 0
-76 67 77 0
76 -67 77 0
76 67 -77 0
-77 -68 -78 0
-77 68 78 0
77 -68 -78 0
77 68 -78 0
-78 -69 79 0
-78 69 79 0
78 -69 -79 0
78 69 79 0
-79 -70 -80 0
-79 70 -80 0
79 -70 80 0
79 70 -80 0
-71 -385 81 0
-71 385 -81 0
71 -386 81 0
71 386 -81 0
-81 -72 82 0
-81 72 -82 0
81 -72 82 0
81 72 82 0
-82 -73 83 0
-82 73 -83 0
82 -73 83 0
82 73 -83 0
-83 -74 84 0
-83 74 -84 0
83 -74 84 0
83 74 84 0
-84 -75 -85 0
-84 75 85 0
84 -75 -85 0
84 75 85 0
-85 -76 86 0
-85 76 86 0
85 -76 86 0
85 76 -86 0
-86 -77 -87 0
-86 77 87 0
86 -77 -87 0
86 77 87 0
-87 -78 88 0
-87 78 -88 0
87 -78 88 0
87 78 -88 0
-88 -79 89 0
-88 79 89 0
88 -79 -89 0
88 79 -89 0
-89 -80 -419 90 0
-89 -80 419 -90 0
-89 80 -420 90 0
-89 80 420 -90 0
89 -80 -421 90 0
89 -80 421 -90 0
89 80 -422 90 0
89 80 422 -90 0
-81 -91 0
81 91 0
-91 -82 -92 0
-91 82 -92 0
91 -82 -92 0
91 82 92 0
-92 -83 93 0
-92 83 93 0
92 -83 93 0
92 83 -93 0
-93 -84 94 0
-93 84 -94 0
93 -84 -94 0
93 84 -94 0
-94 -85 95 0
-94 85 -95 0
94 -85 95 0
94 85 -95 0
-95 -86 96 0
-95 86 96 0
95 -86 96 0
95 86 -96 0
-96 -87 97 0
-96 87 -97 0
96 -87 97 0
96 87 97 0
-97 -88 98 0
-97 88 98 0
97 -88 98 0
97 88 -98 0
-98 -89 -99 0
-98 89 99 0
98 -89 -99 0
98 89 99 0
-99 -90 100 0
-99 90 -100 0
99 -90 100 0
99 90 100 0
100 0
