data/benchmarks/bayes/90-10-9-q.gr
p tw 460 389
12 123
7 17
67 68
99 100
59 302
67 77
8 9
8 18
40 50
41 42
35 209
73 74
41 51
25 34
73 83
18 147
17 179
14 15
14 24
74 75
90 419
74 84
15 16
47 48
15 25
47 57
59 68
25 173
48 49
48 58
80 90
32 199
81 82
33 42
89 422
81 91
28 183
22 23
84 93
11 121
22 32
66 75
55 56
7 16
55 65
59 301
58 67
65 362
40 49
73 82
18 146
32 41
14 23
65 74
47 56
6 15
31 197
21 22
21 31
80 89
39 48
32 198
54 55
54 64
35 212
89 421
17 182
87 88
75 361
87 97
28 29
28 38
88 89
88 98
29 30
58 304
61 62
61 71
24 171
65 361
2 3
34 212
2 12
62 63
94 95
3 4
71 386
35 36
35 45
95 96
2 124
36 37
68 69
68 78
69 70
69 79
17 145
54 63
89 420
13 22
43 44
43 53
27 185
87 96
46 55
76 77
28 37
76 86
79 88
31 200
58 303
20 29
34 211
2 11
53 62
71 385
35 44
27 180
75 364
9 10
86 95
2 123
9 19
49 302
68 77
27 36
42 43
25 210
42 52
60 69
75 76
15 174
75 85
16 17
16 26
80 419
27 184
74 363
49 50
49 59
82 83
58 302
82 92
22 199
23 24
34 210
23 33
83 84
18 183
8 148
24 25
56 57
56 66
27 179
57 58
89 90
89 99
49 301
30 40
25 209
31 32
15 173
26 182
34 43
64 65
12 122
5 6
67 76
74 362
97 98
8 17
82 91
22 198
74 83
8 147
56 65
15 24
25 172
89 98
48 57
63 64
63 73
4 5
4 14
15 172
22 31
90 422
37 38
37 47
12 121
55 64
1 102
74 361
70 80
29 39
11 12
11 21
62 72
44 45
18 145
44 54
3 13
28 186
11 124
8 146
36 46
96 97
18 19
18 28
59 304
25 171
32 197
10 20
35 211
17 181
90 421
85 86
88 97
1 101
77 78
29 38
77 87
62 71
51 52
3 12
28 185
51 61
11 123
36 45
59 303
69 78
65 364
24 174
10 19
25 26
35 210
89 419
25 35
17 180
43 52
90 420
17 18
17 27
76 85
31 199
50 60
77 86
32 200
17 148
83 93
24 34
28 184
84 85
84 94
75 363
2 122
9 18
57 67
58 59
58 68
42 51
90 100
65 363
24 173
31 41
91 92
75 84
32 33
32 42
16 25
64 74
27 183
5 15
65 66
17 26
65 75
49 58
6 7
6 16
31 198
98 99
58 301
50 59
39 40
34 209
39 49
23 32
17 147
83 92
72 73
24 33
72 82
80 422
75 362
2 121
57 66
30 39
90 99
24 172
26 181
18 186
64 73
27 182
38 39
5 14
38 48
49 304
71 72
71 81
25 212
12 13
22 197
12 22
17 146
13 14
45 46
13 23
45 55
72 81
80 421
81 386
2 102
27 186
46 47
78 79
46 56
78 88
19 20
19 29
79 80
79 89
63 72
52 53
20 30
4 13
52 62
15 171
26 180
53 54
18 185
53 63
37 46
85 95
27 181
26 27
26 36
86 87
38 47
86 96
70 79
27 28
49 303
27 37
25 211
12 21
60 70
44 53
1 2
1 11
8 145
93 94
45 54
80 420
81 385
12 124
2 101
18 27
74 364
78 87
19 28
22 200
18 148
52 61
26 179
18 184
85 94
59 60
26 35
59 69
25 174
92 93
33 34
33 43
11 122
34 35
66 67
34 44
66 76
7 8
